N = 8;
H = 5;
T = 2;

avail = array3d(1..N, 1..H, 1..T, [5, 5, 6, 4, 4, 0, 3, 10, 10, 4, 1, 2, 8, 0, 10, 9, 7, 6, 4, 10, 5, 10, 2, 4, 0, 1, 10, 2, 0, 2, 10, 3, 5, 0, 5, 0, 0, 8, 5, 2, 0, 7, 6, 2, 9, 5, 10, 9, 10, 1, 4, 2, 0, 1, 10, 10, 10, 4, 2, 3, 5, 4, 6, 10, 0, 5, 4, 9, 1, 9, 9, 2, 10, 10, 5, 6, 2, 1, 4, 6]);

r = array2d(1..H, 1..T, [4, 1, 2, 1, 1, 1, 4, 1, 1, 0]);
